qbf_easy_train/easy_3859_SAT.qdimacs
p cnf 32 87
a 8 4 5 0
e 1 2 3 6 7 9 10 11 12 13 14 15 16 17 18 19 20 21 22 23 24 25 26 27 28 29 30 31 32 0
-3 -2 0
-3 1 0
2 -1 3 0
-1 3 -4 0
1 -3 -4 0
-1 -3 4 0
1 3 4 0
-7 -5 0
-7 -6 0
5 6 7 0
9 -8 0
9 8 0
-6 -3 -10 0
6 3 -10 0
-6 3 10 0
6 -3 10 0
11 -6 0
11 8 0
6 -8 -11 0
2 11 -12 0
-2 -11 -12 0
2 -11 12 0
-2 11 12 0
-13 10 0
-13 -12 0
-10 12 13 0
14 9 0
14 -13 0
-9 13 -14 0
-15 7 0
-15 -14 0
-7 14 15 0
17 -16 0
17 -12 0
16 12 -17 0
15 -17 -18 0
-15 17 -18 0
15 17 18 0
-15 -17 18 0
-11 8 -19 0
11 -8 -19 0
-11 -8 19 0
11 8 19 0
20 -18 0
20 -19 0
18 19 -20 0
22 -2 0
22 -21 0
2 21 -22 0
23 -22 0
23 -11 0
22 11 -23 0
-24 20 0
-24 -23 0
-20 23 24 0
-21 -3 -25 0
21 3 -25 0
-21 3 25 0
21 -3 25 0
27 26 0
27 -26 0
28 25 0
28 27 0
-25 -27 -28 0
29 -24 0
29 28 0
24 -28 -29 0
16 12 -30 0
-16 -12 -30 0
16 -12 30 0
-16 12 30 0
-31 -29 0
-31 -30 0
29 30 31 0
-4 31 -32 0
4 -31 -32 0
-4 -31 32 0
4 31 32 0
-5 25 13 23 -27 0
-21 -13 -32 -25 4 0
-29 3 -8 -1 21 26 0
-23 27 -5 -24 -12 19 0
25 -6 20 -5 -2 13 -21 0
32 27 -28 20 -3 11 31 0
13 -14 20 0
2 -21 1 12 32 0
32 0
