sat_easy_train/easy_3859_SAT.dimacs
p cnf 107 355
5 3 0
5 4 0
-3 -4 -5 0
2 -5 -6 0
-2 5 -6 0
2 5 6 0
-2 -5 6 0
7 -1 0
7 6 0
1 -6 -7 0
10 3 0
10 9 0
-3 -9 -10 0
-11 8 0
-11 -10 0
-8 10 11 0
-11 12 -13 0
11 -12 -13 0
-11 -12 13 0
11 12 13 0
-15 -14 0
-15 9 0
14 -9 15 0
16 13 0
16 -15 0
-13 15 -16 0
-7 16 -17 0
7 -16 -17 0
-7 -16 17 0
7 16 17 0
-19 -18 0
-19 8 0
18 -8 19 0
21 13 0
21 -20 0
-13 20 -21 0
-19 21 -22 0
19 -21 -22 0
-19 -21 22 0
19 21 22 0
23 -9 0
23 4 0
9 -4 -23 0
-24 -9 0
-24 10 0
9 -10 24 0
24 25 -26 0
-24 -25 -26 0
24 -25 26 0
-24 25 26 0
-2 -14 -27 0
2 14 -27 0
-2 14 27 0
2 -14 27 0
2 27 -28 0
-2 -27 -28 0
2 -27 28 0
-2 27 28 0
-29 -28 0
-29 -3 0
28 3 29 0
26 29 -30 0
-26 -29 -30 0
26 -29 30 0
-26 29 30 0
31 -23 0
31 -30 0
23 30 -31 0
-3 -9 -32 0
3 9 -32 0
-3 9 32 0
3 -9 32 0
-33 -31 0
-33 32 0
31 -32 33 0
35 -2 0
35 34 0
2 -34 -35 0
36 33 0
36 35 0
-33 -35 -36 0
37 22 0
37 36 0
-22 -36 -37 0
-9 38 -39 0
9 -38 -39 0
-9 -38 39 0
9 38 39 0
-40 -38 0
-40 -30 0
38 30 40 0
41 39 0
41 40 0
-39 -40 -41 0
43 -38 0
43 -42 0
38 42 -43 0
41 43 -44 0
-41 -43 -44 0
41 -43 44 0
-41 43 44 0
37 44 -45 0
-37 -44 -45 0
37 -44 45 0
-37 44 45 0
46 -17 0
46 45 0
17 -45 -46 0
47 1 0
47 9 0
-1 -9 -47 0
-10 -47 -48 0
10 47 -48 0
-10 47 48 0
10 -47 48 0
-50 -48 0
-50 49 0
48 -49 50 0
50 32 -51 0
-50 -32 -51 0
50 -32 51 0
-50 32 51 0
-11 -25 -52 0
11 25 -52 0
-11 25 52 0
11 -25 52 0
-53 -52 0
-53 -20 0
52 20 53 0
-51 53 -54 0
51 -53 -54 0
-51 -53 54 0
51 53 54 0
55 -26 0
55 -13 0
26 13 -55 0
18 32 -56 0
-18 -32 -56 0
18 -32 56 0
-18 32 56 0
-57 50 0
-57 56 0
-50 -56 57 0
58 -57 0
58 -39 0
57 39 -58 0
59 -14 0
59 10 0
14 -10 -59 0
15 59 -60 0
-15 -59 -60 0
15 -59 60 0
-15 59 60 0
-38 -60 -61 0
38 60 -61 0
-38 60 61 0
38 -60 61 0
61 10 -62 0
-61 -10 -62 0
61 -10 62 0
-61 10 62 0
58 62 -63 0
-58 -62 -63 0
58 -62 63 0
-58 62 63 0
-64 55 0
-64 63 0
-55 -63 64 0
-65 -54 0
-65 -64 0
54 64 65 0
46 65 -66 0
-46 -65 -66 0
46 -65 66 0
-46 65 66 0
-67 38 0
-67 -8 0
-38 8 67 0
-67 -18 -68 0
67 18 -68 0
-67 18 68 0
67 -18 68 0
-69 68 0
-69 -60 0
-68 60 69 0
4 -61 -70 0
-4 61 -70 0
4 61 70 0
-4 -61 70 0
71 48 0
71 70 0
-48 -70 -71 0
-69 71 -72 0
69 -71 -72 0
-69 -71 72 0
69 71 72 0
74 27 0
74 73 0
-27 -73 -74 0
-75 -49 0
-75 -42 0
49 42 75 0
-76 -5 0
-76 75 0
5 -75 76 0
-74 76 -77 0
74 -76 -77 0
-74 -76 77 0
74 76 77 0
78 72 0
78 77 0
-72 -77 -78 0
-66 -78 -79 0
66 78 -79 0
-66 78 79 0
66 -78 79 0
-80 25 0
-80 -49 0
-25 49 80 0
-81 58 0
-81 8 0
-58 -8 81 0
-42 -81 -82 0
42 81 -82 0
-42 81 82 0
42 -81 82 0
83 80 0
83 -82 0
-80 82 -83 0
84 -59 0
84 -73 0
59 73 -84 0
-85 1 0
-85 -84 0
-1 84 85 0
4 -85 -86 0
-4 85 -86 0
4 85 86 0
-4 -85 86 0
-87 83 0
-87 86 0
-83 -86 87 0
-2 -12 -88 0
2 12 -88 0
-2 12 88 0
2 -12 88 0
-89 52 0
-89 -26 0
-52 26 89 0
90 29 0
90 -89 0
-29 89 -90 0
-91 1 0
-91 -52 0
-1 52 91 0
5 91 -92 0
-5 -91 -92 0
5 -91 92 0
-5 91 92 0
-93 90 0
-93 92 0
-90 -92 93 0
-24 27 -94 0
24 -27 -94 0
-24 -27 94 0
24 27 94 0
-93 94 -95 0
93 -94 -95 0
-93 -94 95 0
93 94 95 0
-96 38 0
-96 52 0
-38 -52 96 0
-58 -96 -97 0
58 96 -97 0
-58 96 97 0
58 -96 97 0
-98 -60 0
-98 -50 0
60 50 98 0
97 -98 -99 0
-97 98 -99 0
97 98 99 0
-97 -98 99 0
-100 -95 0
-100 99 0
95 -99 100 0
-101 52 0
-101 32 0
-52 -32 101 0
102 -101 0
102 3 0
101 -3 -102 0
103 -62 0
103 -102 0
62 102 -103 0
104 100 0
104 103 0
-100 -103 -104 0
105 -88 0
105 -104 0
88 104 -105 0
106 -87 0
106 -105 0
87 105 -106 0
107 -79 0
107 106 0
79 -106 -107 0
94 -38 0
67 -65 93 6 0
-39 59 -54 -81 -64 0
-45 72 0
-46 -16 -15 0
39 37 -11 0
95 -39 -42 4 0
48 -21 -82 0
5 83 -51 0
107 -84 41 -78 0
106 86 49 9 0
60 -65 0
-39 21 0
-46 18 12 0
56 63 22 -46 16 96 0
50 96 -98 77 -32 25 0
-75 82 -105 -70 12 -36 0
-88 93 0
-88 48 56 1 0
82 37 -18 -89 0
-17 -54 49 96 5 -58 0
16 -71 -57 72 0
-65 67 48 62 64 94 0
63 -31 0
17 -50 0
-74 -48 0
-49 94 0
103 -70 0
-42 -47 0
30 70 8 0
26 -27 -70 -20 61 0
-69 -83 -44 62 0
-16 -53 0
-74 -7 0
-5 77 60 -103 -72 -23 0
85 -1 103 7 -87 -23 0
-48 -59 63 -102 92 0
2 -103 -77 -102 0
-104 -60 6 99 0
4 5 0
-10 61 0
9 101 -107 23 0
20 91 15 -73 -62 -71 0
-17 74 -76 -61 31 59 0
30 -52 -7 67 -79 -76 0
-36 -51 -101 0
107 0
